
Gurobi 11.0.3 (linux64) logging started Thu Apr 16 08:56:09 2026

Set parameter LogFile to value "tree/results/ceva/ceva_depth-4_run-2/Full MIP/LogFile_FullModel.txt"
Gurobi Optimizer version 11.0.3 build v11.0.3rc0 (linux64 - "CentOS Linux 7 (Core)")

CPU model: Intel(R) Xeon(R) Platinum 8260 CPU @ 2.40GHz, instruction set [SSE2|AVX|AVX2|AVX512]
Thread count: 96 physical cores, 192 logical processors, using up to 32 threads

Optimize a model with 270645 rows, 166691 columns and 4330237 nonzeros
Model fingerprint: 0x2629c6ed
Model has 20736 general constraints
Variable types: 104194 continuous, 62497 integer (62497 binary)
Coefficient statistics:
  Matrix range     [8e-04, 1e+04]
  Objective range  [8e-04, 1e+04]
  Bounds range     [1e+00, 1e+03]
  RHS range        [1e-04, 1e+03]

User MIP start produced solution with objective -23599.2 (1.40s)
Loaded user MIP start with objective -23599.2
Processed MIP start in 1.63 seconds (0.35 work units)

Presolve removed 82960 rows and 82944 columns (presolve time = 5s) ...
Presolve added 20720 rows and 82944 columns
Presolve time: 6.13s
Presolved: 291365 rows, 249635 columns, 4496313 nonzeros
Presolved model has 82944 SOS constraint(s)
Variable types: 104194 continuous, 145441 integer (145441 binary)

Deterministic concurrent LP optimizer: primal simplex, dual simplex, and barrier
Showing barrier log only...

Root relaxation presolved: 291365 rows, 249635 columns, 4496313 nonzeros

Root barrier log...

Ordering time: 0.19s

Barrier statistics:
 Dense cols : 240
 AA' NZ     : 4.602e+06
 Factor NZ  : 1.831e+07 (roughly 400 MB of memory)
 Factor Ops : 1.242e+09 (less than 1 second per iteration)
 Threads    : 30

                  Objective                Residual
Iter       Primal          Dual         Primal    Dual     Compl     Time
   0  -8.76747634e+04  2.00027855e+09  1.50e+04 1.97e-14  7.72e+05    15s
   1  -5.08706314e+04  3.39351233e+09  6.38e+03 2.56e+01  2.91e+05    16s
   2  -1.75853188e+04  3.45259250e+09  7.76e+02 3.56e+00  3.92e+04    17s
   3  -1.22918862e+04  2.43187353e+09  7.58e+01 6.90e-01  7.06e+03    19s
   4  -6.44200906e+03  4.75957253e+08  6.09e+00 9.20e-02  9.90e+02    20s
   5  -7.38741891e+02  6.01943259e+07  3.14e-01 8.91e-03  1.15e+02    21s
   6  -7.29746568e+01  6.30064595e+06  3.13e-02 8.90e-04  1.17e+01    21s
   7  -6.39671849e+00  6.40339635e+05  3.22e-03 9.04e-05  1.19e+00    22s
   8   2.61124677e-01  7.32770146e+04  4.13e-04 1.03e-05  1.36e-01    23s
   9   9.26187242e-01  8.13722750e+03  4.99e-05 1.14e-06  1.50e-02    24s
  10   9.91516783e-01  8.22465803e+02  4.94e-06 1.15e-07  1.52e-03    25s
  11   9.99151386e-01  8.38942119e+01  4.90e-07 1.15e-08  1.53e-04    26s
  12   9.99915139e-01  9.28948619e+00  4.90e-08 1.15e-09  1.53e-05    27s
  13   9.99991513e-01  1.83649289e+00  4.86e-09 1.15e-10  1.55e-06    28s
  14   9.99999151e-01  1.08364929e+00  4.86e-10 1.15e-11  1.55e-07    29s
  15   9.99999915e-01  1.00844106e+00  4.84e-11 1.15e-12  1.56e-08    30s
  16   9.99999992e-01  1.00084411e+00  4.95e-12 1.15e-13  1.56e-09    32s
  17   9.99999999e-01  1.00008441e+00  7.67e-13 1.15e-14  1.56e-10    33s
  18   1.00000000e+00  1.00000844e+00  4.41e-13 2.84e-14  1.56e-11    35s
  19   1.00000000e+00  1.00000084e+00  4.41e-13 1.15e-16  1.56e-12    37s
  20   1.00000000e+00  1.00000008e+00  4.26e-13 1.15e-17  1.56e-13    38s
  21   1.00000000e+00  1.00000001e+00  4.41e-13 6.94e-18  1.56e-14    39s

Barrier solved model in 21 iterations and 38.75 seconds (23.19 work units)
Optimal objective 1.00000000e+00


Root crossover log...

   10911 DPushes remaining with DInf 0.0000000e+00                39s
       0 DPushes remaining with DInf 0.0000000e+00                39s

   99034 PPushes remaining with PInf 0.0000000e+00                40s
   31904 PPushes remaining with PInf 0.0000000e+00                40s
       0 PPushes remaining with PInf 0.0000000e+00                45s

  Push phase complete: Pinf 0.0000000e+00, Dinf 0.0000000e+00     45s


Root simplex log...

Iteration    Objective       Primal Inf.    Dual Inf.      Time
   99038    1.0000000e+00   0.000000e+00   0.000000e+00     46s
   99038    1.0000000e+00   0.000000e+00   0.000000e+00     47s
Concurrent spin time: 1.12s

Solved with barrier

Root relaxation: objective 1.000000e+00, 99038 iterations, 38.22 seconds (19.50 work units)
Total elapsed time = 173.00s (DegenMoves)

    Nodes    |    Current Node    |     Objective Bounds      |     Work
 Expl Unexpl |  Obj  Depth IntInf | Incumbent    BestBd   Gap | It/Node Time

     0     0    1.00000    0 18960 -23599.184    1.00000   100%     -  175s
     0     2    1.00000    0 18960 -23599.184    1.00000   100%     - 2715s
     1     4    1.00000    1 14925 -23599.184    1.00000   100% 13937 3600s

Explored 3 nodes (115238 simplex iterations) in 3600.34 seconds (4604.34 work units)
Thread count was 32 (of 192 available processors)

Solution count 1: -23599.2 

Time limit reached
Best objective -2.359918441358e+04, best bound 1.000000000000e+00, gap 100.0042%

User-callback calls 21920, time in user-callback 0.77 sec
